num_intervals = 144;
num_intervals_hour = 6;
max_energy_capacity = 5;
min_energy_capacity = 0;
max_power = 5;
existing_demands = [
0.5, 0.2, 0.7, 5.9, 0.8, 1.2, 0.5, 0.2, 0.7, 5.9, 0.8, 1.2, 0.5, 0.2, 0.7, 5.9, 0.8, 1.2, 0.5, 0.2, 0.7, 5.9, 0.8, 1.2,
0.5, 0.2, 0.7, 5.9, 0.8, 1.2, 0.5, 0.2, 0.7, 5.9, 0.8, 1.2, 0.5, 0.2, 0.7, 5.9, 0.8, 1.2, 0.5, 0.2, 0.7, 5.9, 0.8, 1.2,
0.5, 0.2, 0.7, 5.9, 0.8, 1.2, 0.5, 0.2, 0.7, 5.9, 0.8, 1.2, 0.5, 0.2, 0.7, 5.9, 0.8, 1.2, 0.5, 0.2, 0.7, 5.9, 0.8, 1.2,
0.5, 0.2, 0.7, 5.9, 0.8, 1.2, 0.5, 0.2, 0.7, 5.9, 0.8, 1.2, 0.5, 0.2, 0.7, 5.9, 0.8, 1.2, 0.5, 0.2, 0.7, 5.9, 0.8, 1.2,
0.5, 0.2, 0.7, 5.9, 0.8, 1.2, 0.5, 0.2, 0.7, 5.9, 0.8, 1.2, 0.5, 0.2, 0.7, 5.9, 0.8, 1.2, 0.5, 0.2, 0.7, 5.9, 0.8, 1.2,
0.5, 0.2, 0.7, 5.9, 0.8, 1.2, 0.5, 0.2, 0.7, 5.9, 0.8, 1.2, 0.5, 0.2, 0.7, 5.9, 0.8, 1.2, 0.5, 0.2, 0.7, 5.9, 0.8, 1.2,
];
prices = [
5, 2, 7, 59, 8, 12, 5, 2, 7, 59, 8, 12, 5, 2, 7, 59, 8, 12, 5, 2, 7, 59, 8, 12,
5, 2, 7, 59, 8, 12, 5, 2, 7, 59, 8, 12, 5, 2, 7, 59, 8, 12, 5, 2, 7, 59, 8, 12,
5, 2, 7, 59, 8, 12, 5, 2, 7, 59, 8, 12, 5, 2, 7, 59, 8, 12, 5, 2, 7, 59, 8, 12,
5, 2, 7, 59, 8, 12, 5, 2, 7, 59, 8, 12, 5, 2, 7, 59, 8, 12, 5, 2, 7, 59, 8, 12,
5, 2, 7, 59, 8, 12, 5, 2, 7, 59, 8, 12, 5, 2, 7, 59, 8, 12, 5, 2, 7, 59, 8, 12,
5, 2, 7, 59, 8, 12, 5, 2, 7, 59, 8, 12, 5, 2, 7, 59, 8, 12, 5, 2, 7, 59, 8, 12
];